Start evaluate stage for setting _10000_5_4q_mnl...

========================================================================================================================
Start filling the leftover demands to their 2 choice

Total demand fulfilled in previous round 32.68298, with leftover unfulfilled demand: 2.84231;    Resulting in a total of 35.52529, but b/c consideration set, the maximum possible demand in coming round is 1.8731;    Try to fill them with 2732 sites that has leftover capacity 7.66567

Set parameter ServerPassword
Set parameter CSQueueTimeout to value 120
Set parameter CSIdleTimeout to value 60
Set parameter ServerTimeout to value 10
Set parameter TokenServer to value "164.67.163.231"
Set parameter MIPFocus to value 3
Set parameter MIPGap to value 0.005
Set parameter TimeLimit to value 21600
Gurobi Optimizer version 10.0.1 build v10.0.1rc0 (linux64)

CPU model: AMD EPYC 7742 64-Core Processor, instruction set [SSE2|AVX|AVX2]
Thread count: 128 physical cores, 256 logical processors, using up to 32 threads

Optimize a model with 85812375 rows, 42903525 columns and 85810344 nonzeros
Model fingerprint: 0x618212a6
Coefficient statistics:
  Matrix range     [1e-01, 8e+03]
  Objective range  [1e-01, 8e+03]
  Bounds range     [1e+00, 1e+00]
  RHS range        [1e+00, 9e+03]
Presolve removed 3722 rows and 0 columns (presolve time = 7s) ...
Presolve removed 85811999 rows and 42900231 columns (presolve time = 12s) ...
Presolve removed 85811999 rows and 42903149 columns (presolve time = 15s) ...
Presolve removed 85812375 rows and 42903525 columns
Presolve time: 21.68s
Presolve: All rows and columns removed
Iteration    Objective       Primal Inf.    Dual Inf.      Time
       0    1.0167912e+06   0.000000e+00   0.000000e+00     52s

Solved in 0 iterations and 52.21 seconds (50.16 work units)
Optimal objective  1.016791159e+06
========================================================================================================================
Start filling the leftover demands to their 3 choice

Total demand fulfilled in previous round 1.01679, with leftover unfulfilled demand: 0.8563;    Resulting in a total of 1.8731, but b/c consideration set, the maximum possible demand in coming round is 0.09495;    Try to fill them with 2310 sites that has leftover capacity 6.6483

Set parameter MIPFocus to value 3
Set parameter MIPGap to value 0.005
Set parameter TimeLimit to value 21600
Gurobi Optimizer version 10.0.1 build v10.0.1rc0 (linux64)

CPU model: AMD EPYC 7742 64-Core Processor, instruction set [SSE2|AVX|AVX2]
Thread count: 128 physical cores, 256 logical processors, using up to 32 threads

Optimize a model with 85812375 rows, 42903525 columns and 85807485 nonzeros
Model fingerprint: 0x7fa4af3a
Coefficient statistics:
  Matrix range     [1e-01, 3e+03]
  Objective range  [1e-01, 3e+03]
  Bounds range     [1e+00, 1e+00]
  RHS range        [1e+00, 9e+03]
Presolve removed 5009 rows and 0 columns (presolve time = 12s) ...
Presolve removed 85812353 rows and 42903090 columns (presolve time = 20s) ...
Presolve removed 85812353 rows and 42903503 columns (presolve time = 27s) ...
Presolve removed 85812375 rows and 42903525 columns (presolve time = 33s) ...
Presolve removed 85812375 rows and 42903525 columns
Presolve time: 37.63s
Presolve: All rows and columns removed
Iteration    Objective       Primal Inf.    Dual Inf.      Time
       0    7.5856936e+04   0.000000e+00   0.000000e+00     75s

Solved in 0 iterations and 75.50 seconds (50.17 work units)
Optimal objective  7.585693593e+04
========================================================================================================================
Start filling the leftover demands to their 4 choice

Total demand fulfilled in previous round 0.07586, with leftover unfulfilled demand: 0.01909;    Resulting in a total of 0.09495, but b/c consideration set, the maximum possible demand in coming round is 0.00076;    Try to fill them with 2274 sites that has leftover capacity 6.57229

Set parameter MIPFocus to value 3
Set parameter MIPGap to value 0.005
Set parameter TimeLimit to value 21600
Gurobi Optimizer version 10.0.1 build v10.0.1rc0 (linux64)

CPU model: AMD EPYC 7742 64-Core Processor, instruction set [SSE2|AVX|AVX2]
Thread count: 128 physical cores, 256 logical processors, using up to 32 threads

Optimize a model with 85812375 rows, 42903525 columns and 85807060 nonzeros
Model fingerprint: 0xbb3ddd1f
Coefficient statistics:
  Matrix range     [1e-01, 3e+02]
  Objective range  [1e-01, 3e+02]
  Bounds range     [1e+00, 1e+00]
  RHS range        [1e+00, 9e+03]
Presolve removed 5319 rows and 0 columns (presolve time = 7s) ...
Presolve removed 85812375 rows and 42903515 columns (presolve time = 14s) ...
Presolve removed 85812375 rows and 42903525 columns (presolve time = 16s) ...
Presolve removed 85812375 rows and 42903525 columns (presolve time = 20s) ...
Presolve removed 85812375 rows and 42903525 columns
Presolve time: 22.67s
Presolve: All rows and columns removed
Iteration    Objective       Primal Inf.    Dual Inf.      Time
       0    7.6102424e+02   0.000000e+00   0.000000e+00     53s

Solved in 0 iterations and 53.38 seconds (44.90 work units)
Optimal objective  7.610242370e+02
========================================================================================================================
Start filling the leftover demands to their 5 choice

Total demand fulfilled in previous round 0.00076, with leftover unfulfilled demand: 0.0;    Resulting in a total of 0.00076, but b/c consideration set, the maximum possible demand in coming round is 0.0;    Try to fill them with 2274 sites that has leftover capacity 6.57153

Set parameter MIPFocus to value 3
Set parameter MIPGap to value 0.005
Set parameter TimeLimit to value 21600
Gurobi Optimizer version 10.0.1 build v10.0.1rc0 (linux64)

CPU model: AMD EPYC 7742 64-Core Processor, instruction set [SSE2|AVX|AVX2]
Thread count: 128 physical cores, 256 logical processors, using up to 32 threads

Optimize a model with 85812375 rows, 42903525 columns and 85807050 nonzeros
Model fingerprint: 0xdb1af773
Coefficient statistics:
  Matrix range     [1e+00, 1e+00]
  Objective range  [0e+00, 0e+00]
  Bounds range     [1e+00, 1e+00]
  RHS range        [1e+00, 9e+03]
Presolve removed 5325 rows and 0 columns (presolve time = 8s) ...
Presolve removed 85812375 rows and 42903525 columns (presolve time = 15s) ...
Presolve removed 85812375 rows and 42903525 columns (presolve time = 17s) ...
Presolve removed 85812375 rows and 42903525 columns (presolve time = 20s) ...
Presolve removed 85812375 rows and 42903525 columns
Presolve time: 23.16s
Presolve: All rows and columns removed
Iteration    Objective       Primal Inf.    Dual Inf.      Time
       0   -0.0000000e+00   0.000000e+00   0.000000e+00     48s

Solved in 0 iterations and 48.44 seconds (44.90 work units)
Optimal objective -0.000000000e+00
Finished evaluate stage for setting _10000_5_4q_mnl!

